<number of tasks>
20

<cycle time>
1000

<order strength>
0,5


<task times>
1 422
2 534
3 615
4 440
5 509
6 447
7 514
8 401
9 529
10 247
11 495
12 284
13 587
14 496
15 616
16 483
17 420
18 265
19 437
20 411

<precedence relations>
1,4
1,5
1,15
2,7
3,6
5,13
5,19
6,10
6,11
6,13
7,8
7,9
7,11
8,12
8,13
9,12
9,13
10,12
12,14
12,15
12,16
14,17
14,19
15,17
15,18
16,20

<end>
